\ LP format - for model browsing. Use MPS format to capture full model detail.
Minimize
  4657 x[0] + 3286 x[1]
Subject To
 covering[2]: x[0] >= 1
 covering[3]: x[0] >= 1
 covering[4]: x[1] >= 1
 covering[5]: x[1] >= 1
 covering[6]: x[1] >= 1
 covering[7]: x[0] + x[1] >= 1
Bounds
Binaries
 x[0] x[1]
End
